
Gurobi 13.0.1 (linux64) logging started Fri Mar 20 20:52:06 2026

Set parameter LogFile to value "logs/100B_3F_deterministic_2026-03-20_20h51m37s.log"
Set parameter Threads to value 1
Gurobi Optimizer version 13.0.1 build v13.0.1rc0 (linux64 - "Linux Mint 22")

CPU model: 12th Gen Intel(R) Core(TM) i7-12700, instruction set [SSE2|AVX|AVX2]
Thread count: 20 physical cores, 20 logical processors, using up to 1 threads

Non-default parameters:
TimeLimit  3600
SoftMemLimit  12
Threads  1

Optimize a model with 59720 rows, 1530110 columns and 4609662 nonzeros (Max)
Model fingerprint: 0x44259498
Model has 1492535 linear objective coefficients
Variable types: 15110 continuous, 1515000 integer (1515000 binary)
Coefficient statistics:
  Matrix range     [3e-05, 1e+05]
  Objective range  [2e+01, 3e+03]
  Bounds range     [1e+00, 1e+05]
  RHS range        [1e+00, 1e+05]

Presolve removed 36209 rows and 1240576 columns
Presolve time: 0.78s
Presolved: 23511 rows, 289534 columns, 908598 nonzeros
Variable types: 5940 continuous, 283594 integer (283594 binary)
Found heuristic solution: objective -4.82082e+08
Performing another presolve...
Presolve added 0 rows and 10 columns
Presolve removed 18 rows and 0 columns
Presolve time: 1.16s

Root simplex log...

Iteration    Objective       Primal Inf.    Dual Inf.      Time
   15382    4.0111690e+08   4.921902e+05   0.000000e+00      5s
   23792    4.0111566e+08   1.395714e+05   0.000000e+00     10s
   25218    4.0111564e+08   0.000000e+00   0.000000e+00     13s

Root relaxation: objective 4.011156e+08, 25218 iterations, 10.69 seconds (21.47 work units)
Total elapsed time = 13.42s (DegenMoves)

    Nodes    |    Current Node    |     Objective Bounds      |     Work
 Expl Unexpl |  Obj  Depth IntInf | Incumbent    BestBd   Gap | It/Node Time

     0     0 4.0112e+08    0 4791 -4.821e+08 4.0112e+08   183%     -   13s
H    0     0                    1.637713e+08 4.0112e+08   145%     -   14s
H    0     0                    1.817122e+08 4.0112e+08   121%     -   14s
H    0     0                    2.358278e+08 4.0112e+08  70.1%     -   14s
H    0     0                    4.010268e+08 4.0112e+08  0.02%     -   18s
     0     0 4.0112e+08    0 5261 4.0103e+08 4.0112e+08  0.02%     -   38s
     0     0 4.0111e+08    0 5122 4.0103e+08 4.0111e+08  0.02%     -   92s
     0     0 4.0111e+08    0 5160 4.0103e+08 4.0111e+08  0.02%     -   95s
     0     0 4.0111e+08    0 5160 4.0103e+08 4.0111e+08  0.02%     -   97s
     0     0 4.0111e+08    0 5160 4.0103e+08 4.0111e+08  0.02%     -   99s
     0     0 4.0111e+08    0 5156 4.0103e+08 4.0111e+08  0.02%     -  100s
     0     0 4.0111e+08    0 5156 4.0103e+08 4.0111e+08  0.02%     -  103s
     0     0 4.0111e+08    0 5156 4.0103e+08 4.0111e+08  0.02%     -  103s
     0     2 4.0111e+08    0 5152 4.0103e+08 4.0111e+08  0.02%     -  121s
     2     4 4.0111e+08    1 4389 4.0103e+08 4.0111e+08  0.02%  2768  135s
     4     6 4.0111e+08    2 4136 4.0103e+08 4.0111e+08  0.02%  3112  154s
     5     7 4.0111e+08    3 5198 4.0103e+08 4.0111e+08  0.02%  2667  157s
     6     8 4.0111e+08    3 4210 4.0103e+08 4.0111e+08  0.02%  3179  171s
     8    10 4.0111e+08    4 4347 4.0103e+08 4.0111e+08  0.02%  3114  186s
    10    12 4.0111e+08    6 5145 4.0103e+08 4.0111e+08  0.02%  2610  190s
    11    13 4.0111e+08    6 4599 4.0103e+08 4.0111e+08  0.02%  3656  229s
H   12    12                    4.010314e+08 4.0111e+08  0.02%  3352  232s
H   12    12                    4.010327e+08 4.0111e+08  0.02%  3352  267s
    12    14 4.0111e+08    7 5188 4.0103e+08 4.0111e+08  0.02%  3385  335s
    13    15 4.0111e+08    8 5187 4.0103e+08 4.0111e+08  0.02%  3136  457s
    14    16 4.0111e+08    9 5253 4.0103e+08 4.0111e+08  0.02%  2940  461s
    15    17 4.0111e+08   10 5096 4.0103e+08 4.0111e+08  0.02%  2835  465s
    16    18 4.0111e+08   10 4850 4.0103e+08 4.0111e+08  0.02%  2898  499s
    17    19 4.0111e+08   11 5121 4.0103e+08 4.0111e+08  0.02%  2761  501s
    19    21 4.0111e+08   13 5288 4.0103e+08 4.0111e+08  0.02%  2561  506s
    20    22 4.0111e+08   13 4544 4.0103e+08 4.0111e+08  0.02%  2711  520s
    24    26 4.0111e+08   16 4273 4.0103e+08 4.0111e+08  0.02%  3007  570s
    28    30 4.0111e+08   20 5319 4.0103e+08 4.0111e+08  0.02%  2634  575s
    31    33 4.0111e+08   22 4217 4.0103e+08 4.0111e+08  0.02%  2686  601s
    33    35 4.0111e+08   23 4379 4.0103e+08 4.0111e+08  0.02%  2708  617s
    35    37 4.0111e+08   24 4286 4.0103e+08 4.0111e+08  0.02%  2759  635s
    37    39 4.0111e+08   25 4222 4.0103e+08 4.0111e+08  0.02%  2824  656s
    40    42 4.0111e+08   28 5562 4.0103e+08 4.0111e+08  0.02%  2641  660s
    42    44 4.0111e+08   29 4746 4.0103e+08 4.0111e+08  0.02%  2642  674s
    43    45 4.0111e+08   30 5485 4.0103e+08 4.0111e+08  0.02%  2589  675s
    46    48 4.0111e+08   33 5371 4.0103e+08 4.0111e+08  0.02%  2457  681s
    47    49 4.0111e+08   33 4525 4.0103e+08 4.0111e+08  0.02%  2518  695s
